c *********************************
c * Circuit generated by BenCGen
c *
c * Parity_401
c *
c * Ports with 1 gate(s): 1
c * Ports with 2 gate(s): 401
c * Total gates: 402
c *********************************
p cnf 803 1605
1 404 0
-1 -404 0
1 -403 0
404 -403 0
-1 -404 403 0
1 2 -405 0
-1 2 405 0
1 -2 405 0
-1 -2 -405 0
3 4 -406 0
-3 4 406 0
3 -4 406 0
-3 -4 -406 0
5 6 -407 0
-5 6 407 0
5 -6 407 0
-5 -6 -407 0
7 8 -408 0
-7 8 408 0
7 -8 408 0
-7 -8 -408 0
9 10 -409 0
-9 10 409 0
9 -10 409 0
-9 -10 -409 0
11 12 -410 0
-11 12 410 0
11 -12 410 0
-11 -12 -410 0
13 14 -411 0
-13 14 411 0
13 -14 411 0
-13 -14 -411 0
15 16 -412 0
-15 16 412 0
15 -16 412 0
-15 -16 -412 0
17 18 -413 0
-17 18 413 0
17 -18 413 0
-17 -18 -413 0
19 20 -414 0
-19 20 414 0
19 -20 414 0
-19 -20 -414 0
21 22 -415 0
-21 22 415 0
21 -22 415 0
-21 -22 -415 0
23 24 -416 0
-23 24 416 0
23 -24 416 0
-23 -24 -416 0
25 26 -417 0
-25 26 417 0
25 -26 417 0
-25 -26 -417 0
27 28 -418 0
-27 28 418 0
27 -28 418 0
-27 -28 -418 0
29 30 -419 0
-29 30 419 0
29 -30 419 0
-29 -30 -419 0
31 32 -420 0
-31 32 420 0
31 -32 420 0
-31 -32 -420 0
33 34 -421 0
-33 34 421 0
33 -34 421 0
-33 -34 -421 0
35 36 -422 0
-35 36 422 0
35 -36 422 0
-35 -36 -422 0
37 38 -423 0
-37 38 423 0
37 -38 423 0
-37 -38 -423 0
39 40 -424 0
-39 40 424 0
39 -40 424 0
-39 -40 -424 0
41 42 -425 0
-41 42 425 0
41 -42 425 0
-41 -42 -425 0
43 44 -426 0
-43 44 426 0
43 -44 426 0
-43 -44 -426 0
45 46 -427 0
-45 46 427 0
45 -46 427 0
-45 -46 -427 0
47 48 -428 0
-47 48 428 0
47 -48 428 0
-47 -48 -428 0
49 50 -429 0
-49 50 429 0
49 -50 429 0
-49 -50 -429 0
51 52 -430 0
-51 52 430 0
51 -52 430 0
-51 -52 -430 0
53 54 -431 0
-53 54 431 0
53 -54 431 0
-53 -54 -431 0
55 56 -432 0
-55 56 432 0
55 -56 432 0
-55 -56 -432 0
57 58 -433 0
-57 58 433 0
57 -58 433 0
-57 -58 -433 0
59 60 -434 0
-59 60 434 0
59 -60 434 0
-59 -60 -434 0
61 62 -435 0
-61 62 435 0
61 -62 435 0
-61 -62 -435 0
63 64 -436 0
-63 64 436 0
63 -64 436 0
-63 -64 -436 0
65 66 -437 0
-65 66 437 0
65 -66 437 0
-65 -66 -437 0
67 68 -438 0
-67 68 438 0
67 -68 438 0
-67 -68 -438 0
69 70 -439 0
-69 70 439 0
69 -70 439 0
-69 -70 -439 0
71 72 -440 0
-71 72 440 0
71 -72 440 0
-71 -72 -440 0
73 74 -441 0
-73 74 441 0
73 -74 441 0
-73 -74 -441 0
75 76 -442 0
-75 76 442 0
75 -76 442 0
-75 -76 -442 0
77 78 -443 0
-77 78 443 0
77 -78 443 0
-77 -78 -443 0
79 80 -444 0
-79 80 444 0
79 -80 444 0
-79 -80 -444 0
81 82 -445 0
-81 82 445 0
81 -82 445 0
-81 -82 -445 0
83 84 -446 0
-83 84 446 0
83 -84 446 0
-83 -84 -446 0
85 86 -447 0
-85 86 447 0
85 -86 447 0
-85 -86 -447 0
87 88 -448 0
-87 88 448 0
87 -88 448 0
-87 -88 -448 0
89 90 -449 0
-89 90 449 0
89 -90 449 0
-89 -90 -449 0
91 92 -450 0
-91 92 450 0
91 -92 450 0
-91 -92 -450 0
93 94 -451 0
-93 94 451 0
93 -94 451 0
-93 -94 -451 0
95 96 -452 0
-95 96 452 0
95 -96 452 0
-95 -96 -452 0
97 98 -453 0
-97 98 453 0
97 -98 453 0
-97 -98 -453 0
99 100 -454 0
-99 100 454 0
99 -100 454 0
-99 -100 -454 0
101 102 -455 0
-101 102 455 0
101 -102 455 0
-101 -102 -455 0
103 104 -456 0
-103 104 456 0
103 -104 456 0
-103 -104 -456 0
105 106 -457 0
-105 106 457 0
105 -106 457 0
-105 -106 -457 0
107 108 -458 0
-107 108 458 0
107 -108 458 0
-107 -108 -458 0
109 110 -459 0
-109 110 459 0
109 -110 459 0
-109 -110 -459 0
111 112 -460 0
-111 112 460 0
111 -112 460 0
-111 -112 -460 0
113 114 -461 0
-113 114 461 0
113 -114 461 0
-113 -114 -461 0
115 116 -462 0
-115 116 462 0
115 -116 462 0
-115 -116 -462 0
117 118 -463 0
-117 118 463 0
117 -118 463 0
-117 -118 -463 0
119 120 -464 0
-119 120 464 0
119 -120 464 0
-119 -120 -464 0
121 122 -465 0
-121 122 465 0
121 -122 465 0
-121 -122 -465 0
123 124 -466 0
-123 124 466 0
123 -124 466 0
-123 -124 -466 0
125 126 -467 0
-125 126 467 0
125 -126 467 0
-125 -126 -467 0
127 128 -468 0
-127 128 468 0
127 -128 468 0
-127 -128 -468 0
129 130 -469 0
-129 130 469 0
129 -130 469 0
-129 -130 -469 0
131 132 -470 0
-131 132 470 0
131 -132 470 0
-131 -132 -470 0
133 134 -471 0
-133 134 471 0
133 -134 471 0
-133 -134 -471 0
135 136 -472 0
-135 136 472 0
135 -136 472 0
-135 -136 -472 0
137 138 -473 0
-137 138 473 0
137 -138 473 0
-137 -138 -473 0
139 140 -474 0
-139 140 474 0
139 -140 474 0
-139 -140 -474 0
141 142 -475 0
-141 142 475 0
141 -142 475 0
-141 -142 -475 0
143 144 -476 0
-143 144 476 0
143 -144 476 0
-143 -144 -476 0
145 146 -477 0
-145 146 477 0
145 -146 477 0
-145 -146 -477 0
147 148 -478 0
-147 148 478 0
147 -148 478 0
-147 -148 -478 0
149 150 -479 0
-149 150 479 0
149 -150 479 0
-149 -150 -479 0
151 152 -480 0
-151 152 480 0
151 -152 480 0
-151 -152 -480 0
153 154 -481 0
-153 154 481 0
153 -154 481 0
-153 -154 -481 0
155 156 -482 0
-155 156 482 0
155 -156 482 0
-155 -156 -482 0
157 158 -483 0
-157 158 483 0
157 -158 483 0
-157 -158 -483 0
159 160 -484 0
-159 160 484 0
159 -160 484 0
-159 -160 -484 0
161 162 -485 0
-161 162 485 0
161 -162 485 0
-161 -162 -485 0
163 164 -486 0
-163 164 486 0
163 -164 486 0
-163 -164 -486 0
165 166 -487 0
-165 166 487 0
165 -166 487 0
-165 -166 -487 0
167 168 -488 0
-167 168 488 0
167 -168 488 0
-167 -168 -488 0
169 170 -489 0
-169 170 489 0
169 -170 489 0
-169 -170 -489 0
171 172 -490 0
-171 172 490 0
171 -172 490 0
-171 -172 -490 0
173 174 -491 0
-173 174 491 0
173 -174 491 0
-173 -174 -491 0
175 176 -492 0
-175 176 492 0
175 -176 492 0
-175 -176 -492 0
177 178 -493 0
-177 178 493 0
177 -178 493 0
-177 -178 -493 0
179 180 -494 0
-179 180 494 0
179 -180 494 0
-179 -180 -494 0
181 182 -495 0
-181 182 495 0
181 -182 495 0
-181 -182 -495 0
183 184 -496 0
-183 184 496 0
183 -184 496 0
-183 -184 -496 0
185 186 -497 0
-185 186 497 0
185 -186 497 0
-185 -186 -497 0
187 188 -498 0
-187 188 498 0
187 -188 498 0
-187 -188 -498 0
189 190 -499 0
-189 190 499 0
189 -190 499 0
-189 -190 -499 0
191 192 -500 0
-191 192 500 0
191 -192 500 0
-191 -192 -500 0
193 194 -501 0
-193 194 501 0
193 -194 501 0
-193 -194 -501 0
195 196 -502 0
-195 196 502 0
195 -196 502 0
-195 -196 -502 0
197 198 -503 0
-197 198 503 0
197 -198 503 0
-197 -198 -503 0
199 200 -504 0
-199 200 504 0
199 -200 504 0
-199 -200 -504 0
201 202 -505 0
-201 202 505 0
201 -202 505 0
-201 -202 -505 0
203 204 -506 0
-203 204 506 0
203 -204 506 0
-203 -204 -506 0
205 206 -507 0
-205 206 507 0
205 -206 507 0
-205 -206 -507 0
207 208 -508 0
-207 208 508 0
207 -208 508 0
-207 -208 -508 0
209 210 -509 0
-209 210 509 0
209 -210 509 0
-209 -210 -509 0
211 212 -510 0
-211 212 510 0
211 -212 510 0
-211 -212 -510 0
213 214 -511 0
-213 214 511 0
213 -214 511 0
-213 -214 -511 0
215 216 -512 0
-215 216 512 0
215 -216 512 0
-215 -216 -512 0
217 218 -513 0
-217 218 513 0
217 -218 513 0
-217 -218 -513 0
219 220 -514 0
-219 220 514 0
219 -220 514 0
-219 -220 -514 0
221 222 -515 0
-221 222 515 0
221 -222 515 0
-221 -222 -515 0
223 224 -516 0
-223 224 516 0
223 -224 516 0
-223 -224 -516 0
225 226 -517 0
-225 226 517 0
225 -226 517 0
-225 -226 -517 0
227 228 -518 0
-227 228 518 0
227 -228 518 0
-227 -228 -518 0
229 230 -519 0
-229 230 519 0
229 -230 519 0
-229 -230 -519 0
231 232 -520 0
-231 232 520 0
231 -232 520 0
-231 -232 -520 0
233 234 -521 0
-233 234 521 0
233 -234 521 0
-233 -234 -521 0
235 236 -522 0
-235 236 522 0
235 -236 522 0
-235 -236 -522 0
237 238 -523 0
-237 238 523 0
237 -238 523 0
-237 -238 -523 0
239 240 -524 0
-239 240 524 0
239 -240 524 0
-239 -240 -524 0
241 242 -525 0
-241 242 525 0
241 -242 525 0
-241 -242 -525 0
243 244 -526 0
-243 244 526 0
243 -244 526 0
-243 -244 -526 0
245 246 -527 0
-245 246 527 0
245 -246 527 0
-245 -246 -527 0
247 248 -528 0
-247 248 528 0
247 -248 528 0
-247 -248 -528 0
249 250 -529 0
-249 250 529 0
249 -250 529 0
-249 -250 -529 0
251 252 -530 0
-251 252 530 0
251 -252 530 0
-251 -252 -530 0
253 254 -531 0
-253 254 531 0
253 -254 531 0
-253 -254 -531 0
255 256 -532 0
-255 256 532 0
255 -256 532 0
-255 -256 -532 0
257 258 -533 0
-257 258 533 0
257 -258 533 0
-257 -258 -533 0
259 260 -534 0
-259 260 534 0
259 -260 534 0
-259 -260 -534 0
261 262 -535 0
-261 262 535 0
261 -262 535 0
-261 -262 -535 0
263 264 -536 0
-263 264 536 0
263 -264 536 0
-263 -264 -536 0
265 266 -537 0
-265 266 537 0
265 -266 537 0
-265 -266 -537 0
267 268 -538 0
-267 268 538 0
267 -268 538 0
-267 -268 -538 0
269 270 -539 0
-269 270 539 0
269 -270 539 0
-269 -270 -539 0
271 272 -540 0
-271 272 540 0
271 -272 540 0
-271 -272 -540 0
273 274 -541 0
-273 274 541 0
273 -274 541 0
-273 -274 -541 0
275 276 -542 0
-275 276 542 0
275 -276 542 0
-275 -276 -542 0
277 278 -543 0
-277 278 543 0
277 -278 543 0
-277 -278 -543 0
279 280 -544 0
-279 280 544 0
279 -280 544 0
-279 -280 -544 0
281 282 -545 0
-281 282 545 0
281 -282 545 0
-281 -282 -545 0
283 284 -546 0
-283 284 546 0
283 -284 546 0
-283 -284 -546 0
285 286 -547 0
-285 286 547 0
285 -286 547 0
-285 -286 -547 0
287 288 -548 0
-287 288 548 0
287 -288 548 0
-287 -288 -548 0
289 290 -549 0
-289 290 549 0
289 -290 549 0
-289 -290 -549 0
291 292 -550 0
-291 292 550 0
291 -292 550 0
-291 -292 -550 0
293 294 -551 0
-293 294 551 0
293 -294 551 0
-293 -294 -551 0
295 296 -552 0
-295 296 552 0
295 -296 552 0
-295 -296 -552 0
297 298 -553 0
-297 298 553 0
297 -298 553 0
-297 -298 -553 0
299 300 -554 0
-299 300 554 0
299 -300 554 0
-299 -300 -554 0
301 302 -555 0
-301 302 555 0
301 -302 555 0
-301 -302 -555 0
303 304 -556 0
-303 304 556 0
303 -304 556 0
-303 -304 -556 0
305 306 -557 0
-305 306 557 0
305 -306 557 0
-305 -306 -557 0
307 308 -558 0
-307 308 558 0
307 -308 558 0
-307 -308 -558 0
309 310 -559 0
-309 310 559 0
309 -310 559 0
-309 -310 -559 0
311 312 -560 0
-311 312 560 0
311 -312 560 0
-311 -312 -560 0
313 314 -561 0
-313 314 561 0
313 -314 561 0
-313 -314 -561 0
315 316 -562 0
-315 316 562 0
315 -316 562 0
-315 -316 -562 0
317 318 -563 0
-317 318 563 0
317 -318 563 0
-317 -318 -563 0
319 320 -564 0
-319 320 564 0
319 -320 564 0
-319 -320 -564 0
321 322 -565 0
-321 322 565 0
321 -322 565 0
-321 -322 -565 0
323 324 -566 0
-323 324 566 0
323 -324 566 0
-323 -324 -566 0
325 326 -567 0
-325 326 567 0
325 -326 567 0
-325 -326 -567 0
327 328 -568 0
-327 328 568 0
327 -328 568 0
-327 -328 -568 0
329 330 -569 0
-329 330 569 0
329 -330 569 0
-329 -330 -569 0
331 332 -570 0
-331 332 570 0
331 -332 570 0
-331 -332 -570 0
333 334 -571 0
-333 334 571 0
333 -334 571 0
-333 -334 -571 0
335 336 -572 0
-335 336 572 0
335 -336 572 0
-335 -336 -572 0
337 338 -573 0
-337 338 573 0
337 -338 573 0
-337 -338 -573 0
339 340 -574 0
-339 340 574 0
339 -340 574 0
-339 -340 -574 0
341 342 -575 0
-341 342 575 0
341 -342 575 0
-341 -342 -575 0
343 344 -576 0
-343 344 576 0
343 -344 576 0
-343 -344 -576 0
345 346 -577 0
-345 346 577 0
345 -346 577 0
-345 -346 -577 0
347 348 -578 0
-347 348 578 0
347 -348 578 0
-347 -348 -578 0
349 350 -579 0
-349 350 579 0
349 -350 579 0
-349 -350 -579 0
351 352 -580 0
-351 352 580 0
351 -352 580 0
-351 -352 -580 0
353 354 -581 0
-353 354 581 0
353 -354 581 0
-353 -354 -581 0
355 356 -582 0
-355 356 582 0
355 -356 582 0
-355 -356 -582 0
357 358 -583 0
-357 358 583 0
357 -358 583 0
-357 -358 -583 0
359 360 -584 0
-359 360 584 0
359 -360 584 0
-359 -360 -584 0
361 362 -585 0
-361 362 585 0
361 -362 585 0
-361 -362 -585 0
363 364 -586 0
-363 364 586 0
363 -364 586 0
-363 -364 -586 0
365 366 -587 0
-365 366 587 0
365 -366 587 0
-365 -366 -587 0
367 368 -588 0
-367 368 588 0
367 -368 588 0
-367 -368 -588 0
369 370 -589 0
-369 370 589 0
369 -370 589 0
-369 -370 -589 0
371 372 -590 0
-371 372 590 0
371 -372 590 0
-371 -372 -590 0
373 374 -591 0
-373 374 591 0
373 -374 591 0
-373 -374 -591 0
375 376 -592 0
-375 376 592 0
375 -376 592 0
-375 -376 -592 0
377 378 -593 0
-377 378 593 0
377 -378 593 0
-377 -378 -593 0
379 380 -594 0
-379 380 594 0
379 -380 594 0
-379 -380 -594 0
381 382 -595 0
-381 382 595 0
381 -382 595 0
-381 -382 -595 0
383 384 -596 0
-383 384 596 0
383 -384 596 0
-383 -384 -596 0
385 386 -597 0
-385 386 597 0
385 -386 597 0
-385 -386 -597 0
387 388 -598 0
-387 388 598 0
387 -388 598 0
-387 -388 -598 0
389 390 -599 0
-389 390 599 0
389 -390 599 0
-389 -390 -599 0
391 392 -600 0
-391 392 600 0
391 -392 600 0
-391 -392 -600 0
393 394 -601 0
-393 394 601 0
393 -394 601 0
-393 -394 -601 0
395 396 -602 0
-395 396 602 0
395 -396 602 0
-395 -396 -602 0
397 398 -603 0
-397 398 603 0
397 -398 603 0
-397 -398 -603 0
399 400 -604 0
-399 400 604 0
399 -400 604 0
-399 -400 -604 0
405 406 -605 0
-405 406 605 0
405 -406 605 0
-405 -406 -605 0
407 408 -606 0
-407 408 606 0
407 -408 606 0
-407 -408 -606 0
409 410 -607 0
-409 410 607 0
409 -410 607 0
-409 -410 -607 0
411 412 -608 0
-411 412 608 0
411 -412 608 0
-411 -412 -608 0
413 414 -609 0
-413 414 609 0
413 -414 609 0
-413 -414 -609 0
415 416 -610 0
-415 416 610 0
415 -416 610 0
-415 -416 -610 0
417 418 -611 0
-417 418 611 0
417 -418 611 0
-417 -418 -611 0
419 420 -612 0
-419 420 612 0
419 -420 612 0
-419 -420 -612 0
421 422 -613 0
-421 422 613 0
421 -422 613 0
-421 -422 -613 0
423 424 -614 0
-423 424 614 0
423 -424 614 0
-423 -424 -614 0
425 426 -615 0
-425 426 615 0
425 -426 615 0
-425 -426 -615 0
427 428 -616 0
-427 428 616 0
427 -428 616 0
-427 -428 -616 0
429 430 -617 0
-429 430 617 0
429 -430 617 0
-429 -430 -617 0
431 432 -618 0
-431 432 618 0
431 -432 618 0
-431 -432 -618 0
433 434 -619 0
-433 434 619 0
433 -434 619 0
-433 -434 -619 0
435 436 -620 0
-435 436 620 0
435 -436 620 0
-435 -436 -620 0
437 438 -621 0
-437 438 621 0
437 -438 621 0
-437 -438 -621 0
439 440 -622 0
-439 440 622 0
439 -440 622 0
-439 -440 -622 0
441 442 -623 0
-441 442 623 0
441 -442 623 0
-441 -442 -623 0
443 444 -624 0
-443 444 624 0
443 -444 624 0
-443 -444 -624 0
445 446 -625 0
-445 446 625 0
445 -446 625 0
-445 -446 -625 0
447 448 -626 0
-447 448 626 0
447 -448 626 0
-447 -448 -626 0
449 450 -627 0
-449 450 627 0
449 -450 627 0
-449 -450 -627 0
451 452 -628 0
-451 452 628 0
451 -452 628 0
-451 -452 -628 0
453 454 -629 0
-453 454 629 0
453 -454 629 0
-453 -454 -629 0
455 456 -630 0
-455 456 630 0
455 -456 630 0
-455 -456 -630 0
457 458 -631 0
-457 458 631 0
457 -458 631 0
-457 -458 -631 0
459 460 -632 0
-459 460 632 0
459 -460 632 0
-459 -460 -632 0
461 462 -633 0
-461 462 633 0
461 -462 633 0
-461 -462 -633 0
463 464 -634 0
-463 464 634 0
463 -464 634 0
-463 -464 -634 0
465 466 -635 0
-465 466 635 0
465 -466 635 0
-465 -466 -635 0
467 468 -636 0
-467 468 636 0
467 -468 636 0
-467 -468 -636 0
469 470 -637 0
-469 470 637 0
469 -470 637 0
-469 -470 -637 0
471 472 -638 0
-471 472 638 0
471 -472 638 0
-471 -472 -638 0
473 474 -639 0
-473 474 639 0
473 -474 639 0
-473 -474 -639 0
475 476 -640 0
-475 476 640 0
475 -476 640 0
-475 -476 -640 0
477 478 -641 0
-477 478 641 0
477 -478 641 0
-477 -478 -641 0
479 480 -642 0
-479 480 642 0
479 -480 642 0
-479 -480 -642 0
481 482 -643 0
-481 482 643 0
481 -482 643 0
-481 -482 -643 0
483 484 -644 0
-483 484 644 0
483 -484 644 0
-483 -484 -644 0
485 486 -645 0
-485 486 645 0
485 -486 645 0
-485 -486 -645 0
487 488 -646 0
-487 488 646 0
487 -488 646 0
-487 -488 -646 0
489 490 -647 0
-489 490 647 0
489 -490 647 0
-489 -490 -647 0
491 492 -648 0
-491 492 648 0
491 -492 648 0
-491 -492 -648 0
493 494 -649 0
-493 494 649 0
493 -494 649 0
-493 -494 -649 0
495 496 -650 0
-495 496 650 0
495 -496 650 0
-495 -496 -650 0
497 498 -651 0
-497 498 651 0
497 -498 651 0
-497 -498 -651 0
499 500 -652 0
-499 500 652 0
499 -500 652 0
-499 -500 -652 0
501 502 -653 0
-501 502 653 0
501 -502 653 0
-501 -502 -653 0
503 504 -654 0
-503 504 654 0
503 -504 654 0
-503 -504 -654 0
505 506 -655 0
-505 506 655 0
505 -506 655 0
-505 -506 -655 0
507 508 -656 0
-507 508 656 0
507 -508 656 0
-507 -508 -656 0
509 510 -657 0
-509 510 657 0
509 -510 657 0
-509 -510 -657 0
511 512 -658 0
-511 512 658 0
511 -512 658 0
-511 -512 -658 0
513 514 -659 0
-513 514 659 0
513 -514 659 0
-513 -514 -659 0
515 516 -660 0
-515 516 660 0
515 -516 660 0
-515 -516 -660 0
517 518 -661 0
-517 518 661 0
517 -518 661 0
-517 -518 -661 0
519 520 -662 0
-519 520 662 0
519 -520 662 0
-519 -520 -662 0
521 522 -663 0
-521 522 663 0
521 -522 663 0
-521 -522 -663 0
523 524 -664 0
-523 524 664 0
523 -524 664 0
-523 -524 -664 0
525 526 -665 0
-525 526 665 0
525 -526 665 0
-525 -526 -665 0
527 528 -666 0
-527 528 666 0
527 -528 666 0
-527 -528 -666 0
529 530 -667 0
-529 530 667 0
529 -530 667 0
-529 -530 -667 0
531 532 -668 0
-531 532 668 0
531 -532 668 0
-531 -532 -668 0
533 534 -669 0
-533 534 669 0
533 -534 669 0
-533 -534 -669 0
535 536 -670 0
-535 536 670 0
535 -536 670 0
-535 -536 -670 0
537 538 -671 0
-537 538 671 0
537 -538 671 0
-537 -538 -671 0
539 540 -672 0
-539 540 672 0
539 -540 672 0
-539 -540 -672 0
541 542 -673 0
-541 542 673 0
541 -542 673 0
-541 -542 -673 0
543 544 -674 0
-543 544 674 0
543 -544 674 0
-543 -544 -674 0
545 546 -675 0
-545 546 675 0
545 -546 675 0
-545 -546 -675 0
547 548 -676 0
-547 548 676 0
547 -548 676 0
-547 -548 -676 0
549 550 -677 0
-549 550 677 0
549 -550 677 0
-549 -550 -677 0
551 552 -678 0
-551 552 678 0
551 -552 678 0
-551 -552 -678 0
553 554 -679 0
-553 554 679 0
553 -554 679 0
-553 -554 -679 0
555 556 -680 0
-555 556 680 0
555 -556 680 0
-555 -556 -680 0
557 558 -681 0
-557 558 681 0
557 -558 681 0
-557 -558 -681 0
559 560 -682 0
-559 560 682 0
559 -560 682 0
-559 -560 -682 0
561 562 -683 0
-561 562 683 0
561 -562 683 0
-561 -562 -683 0
563 564 -684 0
-563 564 684 0
563 -564 684 0
-563 -564 -684 0
565 566 -685 0
-565 566 685 0
565 -566 685 0
-565 -566 -685 0
567 568 -686 0
-567 568 686 0
567 -568 686 0
-567 -568 -686 0
569 570 -687 0
-569 570 687 0
569 -570 687 0
-569 -570 -687 0
571 572 -688 0
-571 572 688 0
571 -572 688 0
-571 -572 -688 0
573 574 -689 0
-573 574 689 0
573 -574 689 0
-573 -574 -689 0
575 576 -690 0
-575 576 690 0
575 -576 690 0
-575 -576 -690 0
577 578 -691 0
-577 578 691 0
577 -578 691 0
-577 -578 -691 0
579 580 -692 0
-579 580 692 0
579 -580 692 0
-579 -580 -692 0
581 582 -693 0
-581 582 693 0
581 -582 693 0
-581 -582 -693 0
583 584 -694 0
-583 584 694 0
583 -584 694 0
-583 -584 -694 0
585 586 -695 0
-585 586 695 0
585 -586 695 0
-585 -586 -695 0
587 588 -696 0
-587 588 696 0
587 -588 696 0
-587 -588 -696 0
589 590 -697 0
-589 590 697 0
589 -590 697 0
-589 -590 -697 0
591 592 -698 0
-591 592 698 0
591 -592 698 0
-591 -592 -698 0
593 594 -699 0
-593 594 699 0
593 -594 699 0
-593 -594 -699 0
595 596 -700 0
-595 596 700 0
595 -596 700 0
-595 -596 -700 0
597 598 -701 0
-597 598 701 0
597 -598 701 0
-597 -598 -701 0
599 600 -702 0
-599 600 702 0
599 -600 702 0
-599 -600 -702 0
601 602 -703 0
-601 602 703 0
601 -602 703 0
-601 -602 -703 0
603 604 -704 0
-603 604 704 0
603 -604 704 0
-603 -604 -704 0
605 606 -705 0
-605 606 705 0
605 -606 705 0
-605 -606 -705 0
607 608 -706 0
-607 608 706 0
607 -608 706 0
-607 -608 -706 0
609 610 -707 0
-609 610 707 0
609 -610 707 0
-609 -610 -707 0
611 612 -708 0
-611 612 708 0
611 -612 708 0
-611 -612 -708 0
613 614 -709 0
-613 614 709 0
613 -614 709 0
-613 -614 -709 0
615 616 -710 0
-615 616 710 0
615 -616 710 0
-615 -616 -710 0
617 618 -711 0
-617 618 711 0
617 -618 711 0
-617 -618 -711 0
619 620 -712 0
-619 620 712 0
619 -620 712 0
-619 -620 -712 0
621 622 -713 0
-621 622 713 0
621 -622 713 0
-621 -622 -713 0
623 624 -714 0
-623 624 714 0
623 -624 714 0
-623 -624 -714 0
625 626 -715 0
-625 626 715 0
625 -626 715 0
-625 -626 -715 0
627 628 -716 0
-627 628 716 0
627 -628 716 0
-627 -628 -716 0
629 630 -717 0
-629 630 717 0
629 -630 717 0
-629 -630 -717 0
631 632 -718 0
-631 632 718 0
631 -632 718 0
-631 -632 -718 0
633 634 -719 0
-633 634 719 0
633 -634 719 0
-633 -634 -719 0
635 636 -720 0
-635 636 720 0
635 -636 720 0
-635 -636 -720 0
637 638 -721 0
-637 638 721 0
637 -638 721 0
-637 -638 -721 0
639 640 -722 0
-639 640 722 0
639 -640 722 0
-639 -640 -722 0
641 642 -723 0
-641 642 723 0
641 -642 723 0
-641 -642 -723 0
643 644 -724 0
-643 644 724 0
643 -644 724 0
-643 -644 -724 0
645 646 -725 0
-645 646 725 0
645 -646 725 0
-645 -646 -725 0
647 648 -726 0
-647 648 726 0
647 -648 726 0
-647 -648 -726 0
649 650 -727 0
-649 650 727 0
649 -650 727 0
-649 -650 -727 0
651 652 -728 0
-651 652 728 0
651 -652 728 0
-651 -652 -728 0
653 654 -729 0
-653 654 729 0
653 -654 729 0
-653 -654 -729 0
655 656 -730 0
-655 656 730 0
655 -656 730 0
-655 -656 -730 0
657 658 -731 0
-657 658 731 0
657 -658 731 0
-657 -658 -731 0
659 660 -732 0
-659 660 732 0
659 -660 732 0
-659 -660 -732 0
661 662 -733 0
-661 662 733 0
661 -662 733 0
-661 -662 -733 0
663 664 -734 0
-663 664 734 0
663 -664 734 0
-663 -664 -734 0
665 666 -735 0
-665 666 735 0
665 -666 735 0
-665 -666 -735 0
667 668 -736 0
-667 668 736 0
667 -668 736 0
-667 -668 -736 0
669 670 -737 0
-669 670 737 0
669 -670 737 0
-669 -670 -737 0
671 672 -738 0
-671 672 738 0
671 -672 738 0
-671 -672 -738 0
673 674 -739 0
-673 674 739 0
673 -674 739 0
-673 -674 -739 0
675 676 -740 0
-675 676 740 0
675 -676 740 0
-675 -676 -740 0
677 678 -741 0
-677 678 741 0
677 -678 741 0
-677 -678 -741 0
679 680 -742 0
-679 680 742 0
679 -680 742 0
-679 -680 -742 0
681 682 -743 0
-681 682 743 0
681 -682 743 0
-681 -682 -743 0
683 684 -744 0
-683 684 744 0
683 -684 744 0
-683 -684 -744 0
685 686 -745 0
-685 686 745 0
685 -686 745 0
-685 -686 -745 0
687 688 -746 0
-687 688 746 0
687 -688 746 0
-687 -688 -746 0
689 690 -747 0
-689 690 747 0
689 -690 747 0
-689 -690 -747 0
691 692 -748 0
-691 692 748 0
691 -692 748 0
-691 -692 -748 0
693 694 -749 0
-693 694 749 0
693 -694 749 0
-693 -694 -749 0
695 696 -750 0
-695 696 750 0
695 -696 750 0
-695 -696 -750 0
697 698 -751 0
-697 698 751 0
697 -698 751 0
-697 -698 -751 0
699 700 -752 0
-699 700 752 0
699 -700 752 0
-699 -700 -752 0
701 702 -753 0
-701 702 753 0
701 -702 753 0
-701 -702 -753 0
703 704 -754 0
-703 704 754 0
703 -704 754 0
-703 -704 -754 0
705 706 -755 0
-705 706 755 0
705 -706 755 0
-705 -706 -755 0
707 708 -756 0
-707 708 756 0
707 -708 756 0
-707 -708 -756 0
709 710 -757 0
-709 710 757 0
709 -710 757 0
-709 -710 -757 0
711 712 -758 0
-711 712 758 0
711 -712 758 0
-711 -712 -758 0
713 714 -759 0
-713 714 759 0
713 -714 759 0
-713 -714 -759 0
715 716 -760 0
-715 716 760 0
715 -716 760 0
-715 -716 -760 0
717 718 -761 0
-717 718 761 0
717 -718 761 0
-717 -718 -761 0
719 720 -762 0
-719 720 762 0
719 -720 762 0
-719 -720 -762 0
721 722 -763 0
-721 722 763 0
721 -722 763 0
-721 -722 -763 0
723 724 -764 0
-723 724 764 0
723 -724 764 0
-723 -724 -764 0
725 726 -765 0
-725 726 765 0
725 -726 765 0
-725 -726 -765 0
727 728 -766 0
-727 728 766 0
727 -728 766 0
-727 -728 -766 0
729 730 -767 0
-729 730 767 0
729 -730 767 0
-729 -730 -767 0
731 732 -768 0
-731 732 768 0
731 -732 768 0
-731 -732 -768 0
733 734 -769 0
-733 734 769 0
733 -734 769 0
-733 -734 -769 0
735 736 -770 0
-735 736 770 0
735 -736 770 0
-735 -736 -770 0
737 738 -771 0
-737 738 771 0
737 -738 771 0
-737 -738 -771 0
739 740 -772 0
-739 740 772 0
739 -740 772 0
-739 -740 -772 0
741 742 -773 0
-741 742 773 0
741 -742 773 0
-741 -742 -773 0
743 744 -774 0
-743 744 774 0
743 -744 774 0
-743 -744 -774 0
745 746 -775 0
-745 746 775 0
745 -746 775 0
-745 -746 -775 0
747 748 -776 0
-747 748 776 0
747 -748 776 0
-747 -748 -776 0
749 750 -777 0
-749 750 777 0
749 -750 777 0
-749 -750 -777 0
751 752 -778 0
-751 752 778 0
751 -752 778 0
-751 -752 -778 0
753 754 -779 0
-753 754 779 0
753 -754 779 0
-753 -754 -779 0
755 756 -780 0
-755 756 780 0
755 -756 780 0
-755 -756 -780 0
757 758 -781 0
-757 758 781 0
757 -758 781 0
-757 -758 -781 0
759 760 -782 0
-759 760 782 0
759 -760 782 0
-759 -760 -782 0
761 762 -783 0
-761 762 783 0
761 -762 783 0
-761 -762 -783 0
763 764 -784 0
-763 764 784 0
763 -764 784 0
-763 -764 -784 0
765 766 -785 0
-765 766 785 0
765 -766 785 0
-765 -766 -785 0
767 768 -786 0
-767 768 786 0
767 -768 786 0
-767 -768 -786 0
769 770 -787 0
-769 770 787 0
769 -770 787 0
-769 -770 -787 0
771 772 -788 0
-771 772 788 0
771 -772 788 0
-771 -772 -788 0
773 774 -789 0
-773 774 789 0
773 -774 789 0
-773 -774 -789 0
775 776 -790 0
-775 776 790 0
775 -776 790 0
-775 -776 -790 0
777 778 -791 0
-777 778 791 0
777 -778 791 0
-777 -778 -791 0
779 401 -792 0
-779 401 792 0
779 -401 792 0
-779 -401 -792 0
780 781 -793 0
-780 781 793 0
780 -781 793 0
-780 -781 -793 0
782 783 -794 0
-782 783 794 0
782 -783 794 0
-782 -783 -794 0
784 785 -795 0
-784 785 795 0
784 -785 795 0
-784 -785 -795 0
786 787 -796 0
-786 787 796 0
786 -787 796 0
-786 -787 -796 0
788 789 -797 0
-788 789 797 0
788 -789 797 0
-788 -789 -797 0
790 791 -798 0
-790 791 798 0
790 -791 798 0
-790 -791 -798 0
793 794 -799 0
-793 794 799 0
793 -794 799 0
-793 -794 -799 0
795 796 -800 0
-795 796 800 0
795 -796 800 0
-795 -796 -800 0
797 798 -801 0
-797 798 801 0
797 -798 801 0
-797 -798 -801 0
799 800 -802 0
-799 800 802 0
799 -800 802 0
-799 -800 -802 0
801 792 -803 0
-801 792 803 0
801 -792 803 0
-801 -792 -803 0
802 803 -402 0
-802 803 402 0
802 -803 402 0
-802 -803 -402 0
